6 5 5 4 500
2.0 0.19 1.0 0.3 0.0 0.17 4.0 0.19 3.0 0.31
0.0 0.48 2.0 0.18 3.0 0.42 4.0 0.34 1.0 0.33
0.0 0.35 4.0 0.34 1.0 0.4 3.0 0.15 2.0 0.15
4.0 0.46 1.0 0.19 2.0 0.29 3.0 0.41 0.0 0.16
2.0 0.37 3.0 0.17 1.0 0.35 0.0 0.46 4.0 0.43
2.0 0.17 0.0 0.34 4.0 0.3 1.0 0.5 3.0 0.47
